
Gurobi 9.5.0 (linux64) logging started Sat Nov  4 17:04:09 2023

Set parameter LogFile to value "/lustre1/scratch/348/vsc34888/JointResearch/05.Models/06.Benchmarking/D.Representative_days_based_on_RES_and_Demand/RTS24_ByStages_nc80/openStarNet_RTS24_ByStages_nc80.log"
Set parameter Method to value 2
Set parameter MIPFocus to value 1
Set parameter Presolve to value 2
Set parameter RINS to value 100
Set parameter MIPGap to value 0.01
Set parameter Threads to value 36
Set parameter TimeLimit to value 604800
Set parameter IterationLimit to value 760000000
Gurobi Optimizer version 9.5.0 build v9.5.0rc5 (linux64)
Thread count: 36 physical cores, 36 logical processors, using up to 36 threads
Optimize a model with 37340 rows, 21041 columns and 98313 nonzeros
Model fingerprint: 0xb52aa352
Variable types: 21002 continuous, 39 integer (39 binary)
Coefficient statistics:
  Matrix range     [2e-03, 2e+03]
  Objective range  [1e+00, 1e+00]
  Bounds range     [4e-04, 3e+00]
  RHS range        [4e-04, 3e+00]
Presolve removed 19100 rows and 9296 columns
Presolve time: 0.18s
Presolved: 18240 rows, 11745 columns, 63466 nonzeros
Variable types: 11706 continuous, 39 integer (39 binary)
Found heuristic solution: objective 60.1707217
Root relaxation presolved: 18240 rows, 11745 columns, 63466 nonzeros

Root barrier log...

Ordering time: 0.01s

Barrier statistics:
 Dense cols : 39
 AA' NZ     : 1.350e+05
 Factor NZ  : 4.524e+05 (roughly 16 MB of memory)
 Factor Ops : 1.424e+07 (less than 1 second per iteration)
 Threads    : 36

                  Objective                Residual
Iter       Primal          Dual         Primal    Dual     Compl     Time
   0   6.17418508e+05 -6.91935237e+07  4.50e+00 2.67e+02  5.41e+03     0s
   1   6.90989683e+04 -1.86633821e+07  4.30e-01 4.10e-09  6.99e+02     0s
   2   1.66676088e+04 -2.14676426e+06  8.52e-03 2.31e-09  5.93e+01     0s
   3   1.00712313e+04 -1.75506171e+05  6.08e-13 1.84e-10  5.00e+00     0s
   4   1.68739398e+03 -1.73870774e+04  4.69e-13 1.28e-11  5.14e-01     0s
   5   4.82508655e+02 -6.34715616e+03  4.41e-13 4.44e-12  1.84e-01     1s
   6   2.52950019e+02 -1.86504258e+03  3.86e-13 1.36e-12  5.71e-02     1s
   7   1.66354736e+02 -7.54268241e+02  1.84e-13 9.09e-13  2.48e-02     1s
   8   1.09234557e+02 -1.76768945e+02  2.74e-13 9.09e-13  7.71e-03     1s
   9   8.34370630e+01 -3.94349447e+01  1.95e-13 9.09e-13  3.31e-03     1s
  10   5.44527396e+01  1.64861180e+01  2.22e-13 9.09e-13  1.02e-03     1s
  11   4.90346392e+01  3.59022092e+01  3.38e-13 9.09e-13  3.54e-04     1s
  12   4.75713924e+01  3.93992254e+01  5.16e-12 9.09e-13  2.20e-04     1s
  13   4.59985302e+01  4.11923246e+01  2.67e-12 9.09e-13  1.30e-04     1s
  14   4.55305882e+01  4.21526230e+01  8.35e-12 9.09e-13  9.11e-05     1s
  15   4.51918686e+01  4.29707615e+01  7.78e-12 9.09e-13  5.99e-05     1s
  16   4.46993146e+01  4.38836851e+01  5.05e-12 9.09e-13  2.20e-05     1s
  17   4.44946053e+01  4.40608837e+01  6.97e-12 9.09e-13  1.17e-05     1s
  18   4.44089629e+01  4.42968505e+01  1.46e-11 9.09e-13  3.02e-06     1s
  19   4.43666640e+01  4.43349219e+01  8.48e-11 9.09e-13  8.56e-07     1s
  20   4.43434348e+01  4.43423240e+01  2.39e-10 6.82e-13  2.99e-08     1s
  21   4.43428218e+01  4.43428206e+01  6.34e-10 9.09e-13  3.11e-11     1s
  22   4.43428211e+01  4.43428211e+01  1.11e-09 9.09e-13  3.11e-14     1s

Barrier solved model in 22 iterations and 0.72 seconds (0.60 work units)
Optimal objective 4.43428211e+01


Root relaxation: objective 4.434282e+01, 1307 iterations, 0.47 seconds (0.27 work units)

    Nodes    |    Current Node    |     Objective Bounds      |     Work
 Expl Unexpl |  Obj  Depth IntInf | Incumbent    BestBd   Gap | It/Node Time

     0     0   44.34282    0    7   60.17072   44.34282  26.3%     -    0s
H    0     0                      54.7570788   44.34282  19.0%     -    0s
     0     0   45.18761    0    8   54.75708   45.18761  17.5%     -    1s
     0     0   45.19781    0    8   54.75708   45.19781  17.5%     -    1s
     0     0   46.09393    0    7   54.75708   46.09393  15.8%     -    2s
H    0     0                      54.6570700   46.09393  15.7%     -    2s
     0     0   46.18193    0    7   54.65707   46.18193  15.5%     -    2s
     0     0   46.18193    0    7   54.65707   46.18193  15.5%     -    2s
     0     0   46.18193    0    7   54.65707   46.18193  15.5%     -    2s
H    0     0                      53.8120926   46.59832  13.4%     -    2s
     0     0   47.38326    0    8   53.81209   47.38326  11.9%     -    2s
     0     0   47.60461    0    8   53.81209   47.60461  11.5%     -    2s
     0     0   47.60461    0    8   53.81209   47.60461  11.5%     -    3s
     0     0   47.60461    0    8   53.81209   47.60461  11.5%     -    3s
     0     0   47.60461    0    8   53.81209   47.60461  11.5%     -    3s
     0     0   47.70541    0   10   53.81209   47.70541  11.3%     -    3s
     0     0   47.70541    0   10   53.81209   47.70541  11.3%     -    3s
     0     0   47.70541    0   11   53.81209   47.70541  11.3%     -    3s
     0     0   47.70541    0    9   53.81209   47.70541  11.3%     -    3s
     0     0   47.70541    0    9   53.81209   47.70541  11.3%     -    3s
     0     0   47.85360    0   11   53.81209   47.85360  11.1%     -    3s
     0     0   47.85360    0   11   53.81209   47.85360  11.1%     -    3s
     0     0   47.98454    0    9   53.81209   47.98454  10.8%     -    4s
H    0     0                      52.5396298   47.98454  8.67%     -    7s
     0     2   47.98454    0    9   52.53963   47.98454  8.67%     -    8s
   119    25   52.23097    9    3   52.53963   51.02936  2.87%   224   10s

Cutting planes:
  Gomory: 4
  Implied bound: 25
  MIR: 437
  Relax-and-lift: 10

Explored 185 nodes (36968 simplex iterations) in 10.40 seconds (11.63 work units)
Thread count was 36 (of 36 available processors)

Solution count 5: 52.5396 53.8121 54.6571 ... 60.1707

Optimal solution found (tolerance 1.00e-02)
Best objective 5.253962983627e+01, best bound 5.222763884179e+01, gap 0.5938%

Gurobi 9.5.0 (linux64) logging started Sat Nov  4 17:04:24 2023

Set parameter LogFile to value "/lustre1/scratch/348/vsc34888/JointResearch/05.Models/06.Benchmarking/D.Representative_days_based_on_RES_and_Demand/RTS24_ByStages_nc80/openStarNet_RTS24_ByStages_nc80.log"
Set parameter Method to value 2
Set parameter MIPFocus to value 1
Set parameter Presolve to value 2
Set parameter RINS to value 100
Set parameter MIPGap to value 0.01
Set parameter Threads to value 36
Set parameter TimeLimit to value 604800
Set parameter IterationLimit to value 760000000
No parameters matching 'relax_integrality' found
Gurobi Optimizer version 9.5.0 build v9.5.0rc5 (linux64)
Thread count: 36 physical cores, 36 logical processors, using up to 36 threads
Optimize a model with 37340 rows, 21002 columns and 85794 nonzeros
Model fingerprint: 0xbfc04e96
Coefficient statistics:
  Matrix range     [2e-03, 2e+03]
  Objective range  [1e+00, 1e+00]
  Bounds range     [4e-04, 3e+00]
  RHS range        [4e-04, 1e+01]
Presolve removed 30229 rows and 10434 columns
Presolve time: 0.04s
Presolved: 7111 rows, 10728 columns, 25670 nonzeros

Ordering time: 0.00s

Barrier statistics:
 AA' NZ     : 1.692e+04
 Factor NZ  : 7.272e+04 (roughly 6 MB of memory)
 Factor Ops : 1.042e+06 (less than 1 second per iteration)
 Threads    : 36

                  Objective                Residual
Iter       Primal          Dual         Primal    Dual     Compl     Time
   0   6.99909388e+05 -1.99984869e+08  5.04e+00 5.76e+02  2.02e+04     0s
   1   8.43293872e+04 -2.89541502e+07  4.72e-01 1.46e-11  2.09e+03     0s
   2   4.19128190e+04 -3.97615969e+06  1.20e-01 1.52e-11  2.64e+02     0s
   3   2.41656133e+04 -5.41397796e+05  3.20e-03 1.09e-11  3.12e+01     0s
   4   1.24252966e+04 -1.16505643e+05  7.02e-05 1.43e-11  7.06e+00     0s
   5   5.04223834e+03 -3.15542725e+04  1.65e-05 8.07e-12  2.00e+00     0s
   6   1.16678272e+03 -7.16291727e+03  2.51e-06 7.28e-12  4.56e-01     0s
   7   3.46358357e+02 -2.21835338e+03  3.13e-07 3.64e-12  1.40e-01     0s
   8   1.76879431e+02 -5.97954618e+02  6.36e-08 3.64e-12  4.24e-02     0s
   9   9.84534324e+01 -1.88898102e+02  8.42e-09 3.64e-12  1.57e-02     0s
  10   7.10057036e+01  9.76768472e+00  2.10e-09 3.64e-12  3.35e-03     0s
  11   5.92695142e+01  3.22938380e+01  6.11e-10 3.64e-12  1.48e-03     0s
  12   5.57833303e+01  4.59312925e+01  2.78e-10 1.82e-12  5.39e-04     0s
  13   5.39216048e+01  4.99707315e+01  1.14e-10 3.64e-12  2.16e-04     0s
  14   5.30864667e+01  5.16246334e+01  4.34e-11 3.64e-12  8.00e-05     0s
  15   5.27035889e+01  5.22975920e+01  1.25e-11 3.64e-12  2.22e-05     0s
  16   5.25580558e+01  5.25249625e+01  1.29e-11 3.64e-12  1.81e-06     0s
  17   5.25401592e+01  5.25373259e+01  2.27e-09 1.82e-12  1.55e-07     0s
  18   5.25396377e+01  5.25396062e+01  1.84e-09 3.64e-12  1.72e-09     0s
  19   5.25396298e+01  5.25396298e+01  1.35e-09 3.64e-12  1.72e-12     0s
  20   5.25396298e+01  5.25396298e+01  5.01e-09 3.64e-12  1.72e-15     0s

Barrier solved model in 20 iterations and 0.16 seconds (0.11 work units)
Optimal objective 5.25396298e+01

Crossover log...

     950 DPushes remaining with DInf 0.0000000e+00                 0s
       0 DPushes remaining with DInf 0.0000000e+00                 0s

     356 PPushes remaining with PInf 8.8083447e-06                 0s
       0 PPushes remaining with PInf 0.0000000e+00                 0s

  Push phase complete: Pinf 0.0000000e+00, Dinf 2.2778197e-12      0s

Iteration    Objective       Primal Inf.    Dual Inf.      Time
     393    5.2539630e+01   0.000000e+00   0.000000e+00      0s

Use crossover to convert LP symmetric solution to basic solution...
Crossover log...

       0 DPushes remaining with DInf 0.0000000e+00                 0s

     242 PPushes remaining with PInf 0.0000000e+00                 0s
       0 PPushes remaining with PInf 0.0000000e+00                 0s

  Push phase complete: Pinf 0.0000000e+00, Dinf 9.8439222e-13      0s

Iteration    Objective       Primal Inf.    Dual Inf.      Time
     673    5.2539630e+01   0.000000e+00   0.000000e+00      0s

Solved in 673 iterations and 0.23 seconds (0.14 work units)
Optimal objective  5.253962984e+01
